c 1 __UCLIBC_HAS_CTYPE_TABLES__
c 2 __UCLIBC_HAS_THREADS_NATIVE__
c 3 __UCLIBC_SUSV4_LEGACY__
c 4 __UCLIBC_HAS_XLOCALE__
c 6 __UCLIBC_HAS_LOCALE__
c 5 __UCLIBC_HAS_THREADS__
p cnf 6 1
-1 -4 -5 -2 6 -3 1
